
Gurobi 9.5.0 (linux64) logging started Thu Dec  7 22:26:12 2023

Set parameter LogFile to value "/lustre1/scratch/348/vsc34888/JointResearch/05.Models/06.Benchmarking/B.Operation_cost/RTS24_mod1_ByStages_nc20/openStarNet_RTS24_mod1_ByStages_nc20.log"
Set parameter Method to value 2
Set parameter MIPFocus to value 1
Set parameter Presolve to value 2
Set parameter RINS to value 100
Set parameter MIPGap to value 0.01
Set parameter Threads to value 36
Set parameter TimeLimit to value 259200
Set parameter IterationLimit to value 760000000
Gurobi Optimizer version 9.5.0 build v9.5.0rc5 (linux64)
Thread count: 36 physical cores, 36 logical processors, using up to 36 threads
Optimize a model with 5683 rows, 3855 columns and 15488 nonzeros
Model fingerprint: 0x1e94f87c
Variable types: 3834 continuous, 21 integer (21 binary)
Coefficient statistics:
  Matrix range     [8e-03, 1e+03]
  Objective range  [1e+00, 1e+00]
  Bounds range     [1e-04, 2e+00]
  RHS range        [1e-04, 1e+00]
Presolve removed 3387 rows and 1951 columns
Presolve time: 0.02s
Presolved: 2296 rows, 1904 columns, 8291 nonzeros
Variable types: 1883 continuous, 21 integer (21 binary)
Found heuristic solution: objective 43.4864204
Root relaxation presolve removed 6 rows and 6 columns
Root relaxation presolved: 2290 rows, 1898 columns, 8279 nonzeros

Root barrier log...

Ordering time: 0.04s

Barrier statistics:
 AA' NZ     : 5.437e+04
 Factor NZ  : 2.495e+05 (roughly 4 MB of memory)
 Factor Ops : 4.337e+07 (less than 1 second per iteration)
 Threads    : 36

                  Objective                Residual
Iter       Primal          Dual         Primal    Dual     Compl     Time
   0   5.20224210e+05 -3.22255576e+07  4.97e+00 4.47e+02  1.65e+04     0s
   1   4.44602824e+04 -7.94383897e+06  4.82e-01 6.40e-11  2.04e+03     0s
   2   1.35271412e+04 -5.79998898e+06  1.28e-01 6.94e-11  1.20e+03     0s
   3   4.06752979e+03 -3.42481904e+05  1.37e-03 7.69e-11  6.48e+01     0s
   4   2.67591324e+03 -1.45835622e+04  3.62e-13 9.50e-12  3.22e+00     0s
   5   3.80385871e+02 -2.86889934e+03  1.99e-13 1.82e-12  6.05e-01     0s
   6   1.80537769e+02 -7.65384535e+02  1.07e-13 1.82e-12  1.76e-01     0s
   7   1.06567794e+02 -2.34013079e+02  6.84e-14 1.82e-12  6.34e-02     0s
   8   5.58309103e+01 -5.54821879e+01  1.22e-13 1.82e-12  2.07e-02     0s
   9   3.63113703e+01  6.90982368e+00  7.19e-14 3.64e-12  5.48e-03     0s
  10   2.86117564e+01  1.93537319e+01  4.57e-13 1.82e-12  1.72e-03     0s
  11   2.66615146e+01  2.14247168e+01  1.76e-12 1.82e-12  9.76e-04     0s
  12   2.55954563e+01  2.29042782e+01  7.60e-12 1.82e-12  5.01e-04     0s
  13   2.48932699e+01  2.43298571e+01  1.42e-11 1.82e-12  1.05e-04     0s
  14   2.45487225e+01  2.44321724e+01  1.84e-11 1.82e-12  2.17e-05     0s
  15   2.45181333e+01  2.44765077e+01  1.95e-11 3.64e-12  7.75e-06     0s
  16   2.44901256e+01  2.44844604e+01  8.33e-11 1.82e-12  1.06e-06     0s
  17   2.44862291e+01  2.44853535e+01  1.77e-10 5.46e-12  1.63e-07     0s
  18   2.44854195e+01  2.44854043e+01  2.68e-10 3.64e-12  2.82e-09     0s
  19   2.44854068e+01  2.44854068e+01  1.44e-10 3.64e-12  2.30e-12     0s

Barrier solved model in 19 iterations and 0.33 seconds (0.09 work units)
Optimal objective 2.44854068e+01


Root relaxation: objective 2.448541e+01, 342 iterations, 0.30 seconds (0.06 work units)

    Nodes    |    Current Node    |     Objective Bounds      |     Work
 Expl Unexpl |  Obj  Depth IntInf | Incumbent    BestBd   Gap | It/Node Time

     0     0   24.48541    0   12   43.48642   24.48541  43.7%     -    0s
     0     0   24.73387    0   11   43.48642   24.73387  43.1%     -    0s
H    0     0                      40.0930744   24.73387  38.3%     -    0s
     0     0   24.73387    0    9   40.09307   24.73387  38.3%     -    0s
H    0     0                      38.0509855   24.73387  35.0%     -    0s
     0     0   24.73387    0    9   38.05099   24.73387  35.0%     -    0s
     0     0   24.73387    0    9   38.05099   24.73387  35.0%     -    0s
     0     0   25.00982    0    9   38.05099   25.00982  34.3%     -    0s
     0     0   25.46915    0    9   38.05099   25.46915  33.1%     -    0s
     0     0   26.64240    0    9   38.05099   26.64240  30.0%     -    0s
     0     0   26.79866    0    8   38.05099   26.79866  29.6%     -    0s
H    0     0                      36.8696839   26.79866  27.3%     -    1s
     0     2   26.79866    0    8   36.86968   26.79866  27.3%     -    1s
H   92    75                      36.5654739   26.80445  26.7%  60.0    1s

Cutting planes:
  Gomory: 1
  MIR: 31
  Relax-and-lift: 12

Explored 902 nodes (33095 simplex iterations) in 2.14 seconds (1.64 work units)
Thread count was 36 (of 36 available processors)

Solution count 5: 36.5655 36.8697 38.051 ... 43.4864

Optimal solution found (tolerance 1.00e-02)
Best objective 3.656547390987e+01, best bound 3.656547390987e+01, gap 0.0000%

Gurobi 9.5.0 (linux64) logging started Thu Dec  7 22:26:15 2023

Set parameter LogFile to value "/lustre1/scratch/348/vsc34888/JointResearch/05.Models/06.Benchmarking/B.Operation_cost/RTS24_mod1_ByStages_nc20/openStarNet_RTS24_mod1_ByStages_nc20.log"
Set parameter Method to value 2
Set parameter MIPFocus to value 1
Set parameter Presolve to value 2
Set parameter RINS to value 100
Set parameter MIPGap to value 0.01
Set parameter Threads to value 36
Set parameter TimeLimit to value 259200
Set parameter IterationLimit to value 760000000
No parameters matching 'relax_integrality' found
Gurobi Optimizer version 9.5.0 build v9.5.0rc5 (linux64)
Thread count: 36 physical cores, 36 logical processors, using up to 36 threads
Optimize a model with 5683 rows, 3834 columns and 14123 nonzeros
Model fingerprint: 0xb273456d
Coefficient statistics:
  Matrix range     [8e-03, 1e+03]
  Objective range  [1e+00, 1e+00]
  Bounds range     [1e-04, 2e+00]
  RHS range        [1e-04, 1e+01]
Presolve removed 4691 rows and 2115 columns
Presolve time: 0.01s
Presolved: 992 rows, 1751 columns, 4471 nonzeros

Ordering time: 0.00s

Barrier statistics:
 AA' NZ     : 2.640e+03
 Factor NZ  : 8.400e+03 (roughly 1 MB of memory)
 Factor Ops : 1.102e+05 (less than 1 second per iteration)
 Threads    : 1

                  Objective                Residual
Iter       Primal          Dual         Primal    Dual     Compl     Time
   0   4.20685803e+05 -2.14311514e+06  4.62e+00 6.16e+02  3.64e+03     0s
   1   3.54311113e+04 -1.06983457e+06  3.59e-01 4.19e-12  5.17e+02     0s
   2   7.31794782e+03 -1.45749943e+05  2.52e-03 4.58e-12  5.15e+01     0s
   3   1.26454550e+03 -5.94862786e+03  1.55e-14 2.20e-12  2.41e+00     0s
   4   2.38999848e+02 -6.13476230e+02  1.37e-14 1.82e-12  2.85e-01     0s
   5   9.70368076e+01 -1.37692239e+02  4.55e-15 1.36e-12  7.85e-02     0s
   6   5.91376647e+01 -1.80897877e+01  1.03e-14 9.09e-13  2.58e-02     0s
   7   4.11532417e+01  2.88099609e+01  7.77e-15 9.09e-13  4.13e-03     0s
   8   3.71138669e+01  3.61553647e+01  9.93e-14 9.09e-13  3.21e-04     0s
   9   3.65829318e+01  3.65435289e+01  1.78e-12 9.09e-13  1.32e-05     0s
  10   3.65655560e+01  3.65651910e+01  1.22e-13 1.82e-12  1.22e-07     0s
  11   3.65654739e+01  3.65654738e+01  2.65e-12 1.82e-12  2.57e-11     0s
  12   3.65654739e+01  3.65654739e+01  1.34e-13 1.36e-12  3.87e-17     0s

Barrier solved model in 12 iterations and 0.02 seconds (0.02 work units)
Optimal objective 3.65654739e+01

Crossover log...

     205 DPushes remaining with DInf 0.0000000e+00                 0s

      69 PPushes remaining with PInf 0.0000000e+00                 0s
       0 PPushes remaining with PInf 0.0000000e+00                 0s

  Push phase complete: Pinf 0.0000000e+00, Dinf 3.3666125e-13      0s

Iteration    Objective       Primal Inf.    Dual Inf.      Time
      72    3.6565474e+01   0.000000e+00   0.000000e+00      0s

Use crossover to convert LP symmetric solution to basic solution...
Crossover log...

      56 PPushes remaining with PInf 0.0000000e+00                 0s
       0 PPushes remaining with PInf 0.0000000e+00                 0s

  Push phase complete: Pinf 0.0000000e+00, Dinf 3.7607764e-13      0s

Iteration    Objective       Primal Inf.    Dual Inf.      Time
     131    3.6565474e+01   0.000000e+00   0.000000e+00      0s

Solved in 131 iterations and 0.03 seconds (0.02 work units)
Optimal objective  3.656547391e+01
